1429
1193
2877
2911
1816
2534
1711
2625
14408
13037
36425
14781
25269
18231
25290
9980
32653
64977
42361
60040
73101
34964
55701
54671
105379
89633
44491
56169
113649
84240
106755
123630
84715
51679
127706
51785
80997
127166
131221
87086
147506
165557
99004
154778
145199
39819
134851
136076
